 ! --------------------------------------------------- CP Optimizer 22.1.1.0 --
 ! Maximization problem - 13 variables, 44 constraints
 ! Initial process time : 0.00s (0.00s extraction + 0.00s propagation)
 !  . Log search space  : 45.5 (before), 45.5 (after)
 !  . Memory usage      : 300.9 kB (before), 300.9 kB (after)
 ! Using parallel search with 8 workers.
 ! ----------------------------------------------------------------------------
 !          Best Branches  Non-fixed    W       Branch decision
                        0         13                 -
 + New bound is 11
                        0         13    1            -
 + New bound is 6
                       10         12    1   F    11 != labels(6)
 + New bound is 5
 *             1       21  0.01s        1      (gap is 400.0%)
 *             2       86  0.01s        1      (gap is 150.0%)
 *             3      127  0.01s        1      (gap is 66.67%)
 *             4      229  0.01s        1      (gap is 25.00%)
               4      275          2    1            -
 + New bound is 4 (gap is 0.00%)
 ! ----------------------------------------------------------------------------
 ! Search completed, 4 solutions found.
 ! Best objective         : 4 (optimal - effective tol. is 0)
 ! Best bound             : 4
 ! ----------------------------------------------------------------------------
 ! Number of branches     : 5470
 ! Number of fails        : 2719
 ! Total memory usage     : 5.3 MB (4.9 MB CP Optimizer + 0.4 MB Concert)
 ! Time spent in solve    : 0.01s (0.01s engine + 0.00s extraction)
 ! Search speed (br. / s) : 547000.0
 ! ----------------------------------------------------------------------------
